0 1 43 17 27 8 13 48 10 22 29 43 8 33 22
43 0 9 18 14 2 17 24 9 42 36 30 41 31 39
32 8 0 47 7 21 27 4 1 36 32 24 17 17 5
29 37 45 0 29 8 46 30 49 34 47 48 30 50 15
38 26 44 5 0 49 37 6 31 19 49 20 7 42 16
10 42 12 12 1 0 7 8 38 3 10 14 8 3 1
36 22 43 18 1 36 0 48 25 31 42 36 38 10 27
28 2 49 23 50 36 24 0 21 4 38 49 8 40 30
34 20 14 31 12 24 6 47 0 14 18 13 1 26 40
23 38 48 22 42 6 3 17 41 0 36 5 18 17 21
48 39 45 25 46 27 21 30 35 19 0 26 40 47 43
2 49 32 42 36 42 16 43 14 19 30 0 4 23 5
50 36 32 13 26 25 36 20 19 21 35 43 0 24 39
41 4 34 40 39 45 40 21 50 41 13 12 27 0 21
30 46 32 50 14 11 32 19 4 24 46 34 28 28 0
